NAME: ACTUAL_TOURS/amz1974
TYPE: TOUR
COMMENT: RouteID_d1d69436-b16a-48e4-9566-03884da2291a
DIMENSION: 134
TOUR_SECTION
130
22
59
15
52
132
58
27
123
89
57
46
36
103
43
42
98
60
122
127
84
83
53
108
70
74
133
73
75
47
65
64
26
25
12
110
85
88
21
13
120
117
11
100
95
35
92
94
44
56
104
19
134
40
32
77
99
34
61
114
109
48
28
62
125
131
49
107
6
113
111
81
126
39
106
41
24
54
121
115
2
118
55
79
69
29
1
8
124
5
31
86
4
67
63
30
20
101
119
102
91
96
82
90
76
128
10
18
80
7
33
87
116
16
78
129
17
3
38
14
66
93
105
51
9
23
50
72
68
71
112
97
37
45
-1
EOF
